Model 10 9 13 10
4 6 1 1 7 7 7 7 7 7 
1 4 0 3
1 10
3 10
5 10
1 5 0 3
1 10
3 10
5 10
1 6 0 3
1 10
3 10
5 10
1 7 0 3
1 10
3 10
5 10
1 8 0 3
1 10
3 10
5 10
1 9 0 3
1 10
3 10
5 10
4 0 4 5 6 -1 wsum hard 10 == 8
4 4 1 7 8 -1 wsum hard 10 == 8
4 5 7 2 9 -1 wsum hard 10 == 2
4 6 8 9 3 -1 wsum hard 10 == 2
1 4 0 1
0 10
1 5 0 1
0 10
1 6 0 1
0 10
